10J3M/DAT/10J3MNLR-17.dat
10 3
31.5044 36.7954
32.3198 23.8691
17.5844 30.9938
19.4809 31.9984
37.4372 8.7315
26.1422 25.8772
21.0806 47.6005
25.8239 0.6653
19.1745 4.1765
28.6329 40.1542
83.6206