10J3M/SOL/10J3MNLR-17.sol
solution status: optimal solution found
objective value:                     86.3935852378301
x#1#1                                               1 	(obj:0)
x#2#1                               0.260220711580559 	(obj:0)
x#2#2                               0.739779288419441 	(obj:0)
x#3#2                                               1 	(obj:0)
x#4#2                                0.89226316370852 	(obj:0)
x#4#3                                0.10773683629148 	(obj:0)
x#5#2                               0.735032991946037 	(obj:0)
x#5#3                               0.264967008053963 	(obj:0)
x#6#3                                               1 	(obj:0)
x#7#3                               0.999997899181731 	(obj:0)
x#8#1                               0.691065403896731 	(obj:0)
x#8#3                               0.308934596103269 	(obj:0)
x#9#3                                               1 	(obj:0)
x#10#1                                              1 	(obj:0)
z                                    86.3935852378301 	(obj:1)
